/ ______________________________________________________________________________
/ STRAUS7 MODEL EXCHANGE FILE

/ ______________________________________________________________________________
/ MODEL INFORMATION

   FileFormat           Straus7.2.3.3
   ModelName            "12Tetra_Mesh"
   Title                ""
   Project              ""
   Author               ""
   Reference            ""
   Comments             ""

/ ______________________________________________________________________________
/ UNITS

   LengthUnit           m
   MassUnit             kg
   EnergyUnit           J
   PressureUnit         Pa
   ForceUnit            N
   TemperatureUnit      K

/ ______________________________________________________________________________
/ GROUP DEFINITIONS

   Group                    1    16711680   "\\Model"

/ ______________________________________________________________________________
/ FREEDOM CASE DEFINITIONS

   FreedomCase              1       0       1   "Freedom Case 1"
    

/ ______________________________________________________________________________
/ LOAD CASE DEFINITIONS

   LoadCase                 1       0   "Load Case 1"
     LCInclude              3 


/ ______________________________________________________________________________
/ COORDINATE SYSTEM DEFINITIONS

   CoordSys                 1   "Global XYZ"  GlobalXYZ


/ ______________________________________________________________________________
/ NODE COORDINATES

   Node                     1     4.00000000000000E+0      1.00000000000000E+1      0.00000000000000E+0  
   Node                     2     4.00000000000000E+0      7.00000000000000E+0      0.00000000000000E+0  
   Node                     3     7.00000000000000E+0      7.00000000000000E+0      0.00000000000000E+0  
   Node                     4     7.00000000000000E+0      1.00000000000000E+1      0.00000000000000E+0  
   Node                     5     4.00000000000000E+0      1.00000000000000E+1      5.00000000000000E+0  
   Node                     6     4.00000000000000E+0      7.00000000000000E+0      5.00000000000000E+0  
   Node                     7     7.00000000000000E+0      7.00000000000000E+0      5.00000000000000E+0  
   Node                     8     7.00000000000000E+0      1.00000000000000E+1      5.00000000000000E+0  
   Node                     9     5.50000000000000E+0      8.50000000000000E+0      2.50000000000000E+0  

/ ______________________________________________________________________________
/ BRICK ELEMENTS

   Tetra4                   1       1       1       1       2       3       9 
   Tetra4                   2       1       1       3       4       1       9 
   Tetra4                   3       1       1       5       1       4       9 
   Tetra4                   4       1       1       4       8       5       9 
   Tetra4                   5       1       1       5       6       2       9 
   Tetra4                   6       1       1       2       1       5       9 
   Tetra4                   7       1       1       2       6       3       9 
   Tetra4                   8       1       1       7       3       6       9 
   Tetra4                   9       1       1       7       8       3       9 
   Tetra4                  10       1       1       4       3       8       9 
   Tetra4                  11       1       1       6       5       7       9 
   Tetra4                  12       1       1       8       7       5       9 

/ ______________________________________________________________________________
/ PLATE PROPERTIES

   PlateShellProp           1   "Plate Property 1"
     MaterialName       "Unknown material"
     NonLinType         Elasticplastic
     YieldCriterion     VonMises


/ ______________________________________________________________________________
/ BRICK PROPERTIES

   BrickProp                1   "Brick Property 1"
     MaterialName       "Unknown material"
     NonLinType         Elasticplastic
     YieldCriterion     VonMises

