/ ______________________________________________________________________________
/ STRAUS7 MODEL EXCHANGE FILE

/ ______________________________________________________________________________
/ MODEL INFORMATION

   FileFormat           Straus7.2.3.3
   ModelName            "2Hexa"
   Title                ""
   Project              ""
   Author               ""
   Reference            ""
   Comments             ""

/ ______________________________________________________________________________
/ UNITS

   LengthUnit           mm
   MassUnit             T
   EnergyUnit           J
   PressureUnit         MPa
   ForceUnit            N
   TemperatureUnit      C

/ ______________________________________________________________________________
/ GROUP DEFINITIONS

   Group                    1    16711680   "\\Model"

/ ______________________________________________________________________________
/ FREEDOM CASE DEFINITIONS

   FreedomCase              1       0       1   "Freedom Case 1"
    

/ ______________________________________________________________________________
/ LOAD CASE DEFINITIONS

   LoadCase                 1       0   "Load Case 1"
     LCInclude              3 


/ ______________________________________________________________________________
/ COORDINATE SYSTEM DEFINITIONS

   CoordSys                 1   "Global XYZ"  GlobalXYZ


/ ______________________________________________________________________________
/ NODE COORDINATES

   Node                     1     0.00000000000000E+0      0.00000000000000E+0      0.00000000000000E+0  
   Node                     2     5.00000000000000E+1      0.00000000000000E+0      0.00000000000000E+0  
   Node                     3     5.00000000000000E+1      7.00000000000000E+1      0.00000000000000E+0  
   Node                     4     0.00000000000000E+0      7.00000000000000E+1      0.00000000000000E+0  
   Node                     5     0.00000000000000E+0      0.00000000000000E+0      6.00000000000000E+1  
   Node                     6     5.00000000000000E+1      0.00000000000000E+0      6.00000000000000E+1  
   Node                     7     5.00000000000000E+1      7.00000000000000E+1      6.00000000000000E+1  
   Node                     8     0.00000000000000E+0      7.00000000000000E+1      6.00000000000000E+1  
   Node                     9     5.00000000000000E+1      1.00000000000000E+2      0.00000000000000E+0  
   Node                    10     0.00000000000000E+0      1.00000000000000E+2      0.00000000000000E+0  
   Node                    11     5.00000000000000E+1      1.00000000000000E+2      6.00000000000000E+1  
   Node                    12     0.00000000000000E+0      1.00000000000000E+2      6.00000000000000E+1  

/ ______________________________________________________________________________
/ BRICK ELEMENTS

   Hexa8                    1       1       1       2       3       4       1       6       7       8       5 
   Hexa8                    2       1       1       3       9      10       4       7      11      12       8 

/ ______________________________________________________________________________
/ NODE RESTRAINTS (ROTATION AS RADIAN)
/ Freedom Case 1
   NdFreedom                1       1       1       DX  DY  DZ            
   NdFreedom                1       2       1       DX  DY  DZ            
   NdFreedom                1       3       1       DX  DY  DZ            
   NdFreedom                1       4       1       DX  DY  DZ            
   NdFreedom                1       9       1       DX  DY  DZ            
   NdFreedom                1      10       1       DX  DY  DZ            

/ ______________________________________________________________________________
/ NODE FORCES
/ Load Case 1
   NdForce                  1       7     0.00000000000000E+0      0.00000000000000E+0     -1.00000000000000E+2  

/ ______________________________________________________________________________
/ BRICK PROPERTIES

   BrickProp                1   "Brick Property 1"
     MaterialName       "Unknown material - Modified"
     Modulus              1.50000000000000E+1  
     Poisson              3.00000000000000E-1  
     NonLinType         Elasticplastic
     YieldCriterion     VonMises

